(set-logic ALL)
(set-option :produce-models true)
(declare-sort BoundSet 0)
(declare-sort UnboundSet 0)
(set-option :finite-model-find true)
(declare-fun IsTan (BoundSet) Bool)
(declare-fun Chases (BoundSet BoundSet) Bool)
(declare-fun IsBlackAndWhite (BoundSet) Bool)
(declare-fun IsDog (BoundSet) Bool)
(declare-fun IsChasing (BoundSet BoundSet) Bool)
(assert (not (=> (and (exists ((a BoundSet)) (exists ((b BoundSet)) (and (IsTan a) (and (Chases a b) (IsBlackAndWhite b))))) (and (forall ((e BoundSet)) (forall ((f BoundSet)) (=> (IsTan e) (IsDog f)))) (forall ((i BoundSet)) (forall ((h BoundSet)) (forall ((g BoundSet)) (=> (Chases g h) (IsDog i))))))) (exists ((c BoundSet)) (exists ((d BoundSet)) (and (IsDog c) (IsChasing c d)))))))
(check-sat)
(get-model)